CPXPARAM_TimeLimit                               3600
CPXPARAM_Read_DataCheck                          1
CPXPARAM_MIP_Strategy_HeuristicFreq              -1
CPXPARAM_Output_IntSolFilePrefix                 "solucoes/t_SH_ID000M003J004_ZintTrue_manne/sol"
Tried aggregator 1 time.
Reduced MIP has 48 rows, 31 columns, and 132 nonzeros.
Reduced MIP has 18 binaries, 0 generals, 0 SOSs, and 0 indicators.
Presolve time = 0.01 sec. (0.05 ticks)
Probing time = 0.00 sec. (0.01 ticks)
Tried aggregator 1 time.
Reduced MIP has 48 rows, 31 columns, and 132 nonzeros.
Reduced MIP has 18 binaries, 0 generals, 0 SOSs, and 0 indicators.
Presolve time = 0.01 sec. (0.06 ticks)
Probing time = 0.00 sec. (0.01 ticks)
MIP emphasis: balance optimality and feasibility.
MIP search method: dynamic search.
Parallel mode: deterministic, using up to 8 threads.
Root relaxation solution time = 0.01 sec. (0.07 ticks)

        Nodes                                         Cuts/
   Node  Left     Objective  IInf  Best Integer    Best Bound    ItCnt     Gap

      0     0       23.0000     6                     23.0000       13         
      0     0       25.4000     4                    Cuts: 12       33         
      0     0       29.0000     4                    Cuts: 13       39         
      0     0       29.0000     4                     Cuts: 2       41         
      0     0       29.0000     4                     Cuts: 4       42         
      0     2       29.0000     4                     29.0000       42         
Elapsed time = 0.09 sec. (0.97 ticks, tree = 0.01 MB, solutions = 0)
*     4     3      integral     0       29.0000       29.0000       49    0.00%
New incumbent written to file 'solucoes/t_SH_ID000M003J004_ZintTrue_manne/sol-00001.sol'.

Implied bound cuts applied:  2
Flow cuts applied:  2
Mixed integer rounding cuts applied:  3
Gomory fractional cuts applied:  1

Root node processing (before b&c):
  Real time             =    0.08 sec. (0.94 ticks)
Parallel b&c, 8 threads:
  Real time             =    0.01 sec. (0.14 ticks)
  Sync time (average)   =    0.00 sec.
  Wait time (average)   =    0.00 sec.
                          ------------
Total (root+branch&cut) =    0.09 sec. (1.09 ticks)
